WARNING: for repeatability, setting FPU to use double precision
============================[ Problem Statistics ]=============================
|                                                                             |
|  Number of variables:        248016                                         |
|  Number of clauses:          798549                                         |
|  Parse time:                   0.19 s                                       |
|                                                                             |
c ============================[ Search Statistics ]==============================
c | Conflicts |          ORIGINAL         |          LEARNT          | Progress |
c |           |    Vars  Clauses Literals |    Limit  Clauses Lit/Cl |          |
c ===============================================================================
c Switched to VSIDS.
c Switched to LRB.
c Switched to VSIDS.
c Switched to LRB.
c Switched to VSIDS.
c Switched to LRB.
c Switched to VSIDS.
c Switched to LRB.
c Switched to VSIDS.
c Switched to LRB.
c Switched to VSIDS.
c Switched to LRB.
c Switched to VSIDS.
c Switched to LRB.
c Switched to VSIDS.
c ===============================================================================
restarts                  : 4471
conflicts                 : 476476         (1684 /sec)
decisions                 : 383899652      (0.00 % random) (1356594 /sec)
propagations              : 1288539559     (4553337 /sec)
conflict literals         : 34944652       (7.22 % deleted)

conflicts w/ DIP found    : 381971         (80.17 % of conflicts)
conflicts w/ dangerous DIP: 0              (0.00 % of conflicts)
conflicts w/ DIP-learning : 19             (0.00 % of conflicts)
decisions on ext vars     : 490            (0.00 % of decisions)
total ext vars            : 17          
tried delete ext vars     : 0           
deleted ext vars          : 0           
max ext vars              : 17          

Memory used               : 259.00 MB
CPU time                  : 282.988 s
DIP computation time      : 4.04302 s (1.43 % of total time)
ER_sel time               : 0.675938 s
ER_add time               : 0.000227 s
ER_delC time              : 0 s
ER_delV time              : 0 s
ER_sub time               : 0.888102 s
ER_stat time              : 0 s

SATISFIABLE
